p edge 17 62
e 3 2
e 5 2
e 5 3
e 5 4
e 6 1
e 6 2
e 6 4
e 6 5
e 7 5
e 7 6
e 8 5
e 8 7
e 9 1
e 9 3
e 9 6
e 9 7
e 10 2
e 10 3
e 10 5
e 10 7
e 10 8
e 11 5
e 11 6
e 11 9
e 12 1
e 12 11
e 13 1
e 13 3
e 13 4
e 13 8
e 13 9
e 13 11
e 14 1
e 14 2
e 14 3
e 14 5
e 14 7
e 14 9
e 14 10
e 14 11
e 15 2
e 15 5
e 15 6
e 15 7
e 15 8
e 15 9
e 15 11
e 15 14
e 16 3
e 16 5
e 16 6
e 16 7
e 16 9
e 16 12
e 16 13
e 17 4
e 17 6
e 17 7
e 17 9
e 17 10
e 17 13
e 17 15
